&bands
outdir='../tmp/',
prefix='si',
filband='si.bands',
/
